56628
34, 53, 23, 17, 48, 19, 44, 8, 38, 32, 41, 5, 35, 24, 50, 20, 37, 7, 40, 51, 13, 43, 3, 6, 28, 55, 26, 49, 21, 22, 29, 10, 16, 39, 46, 36, 15, 31, 25, 1, 27, 33, 42, 11, 45, 52, 2, 14, 12, 9, 4, 18, 30, 47, 54
